Route #1: 0 52 22 9 39 4 19 66 2 0
Route #2: 0 25 61 34 46 24 29 0
Route #3: 0 47 14 50 11 42 0
Route #4: 0 31 16 23 20 64 44 53 0
Route #5: 0 38 57 62 56 12 0
Route #6: 0 36 1 59 32 51 45 15 5 0
Route #7: 0 30 3 60 40 7 10 26 0
Route #8: 0 17 43 27 41 65 18 28 55 54 0
Route #9: 0 48 6 49 35 8 37 0
Route #10: 0 63 21 58 13 33 0
Cost 1974:
